11111111111111111111111111111111111
10000000000000000000000000000000001
11101011101110101110101111101011101
10001010001000101000100000101010001
10101011101010101110101011101010101
10101010001010100010101000101010101
10101010101010101111101110101110101
10101010101010101000001000101000101
10111111111110111011111110101111111
10000000001000100000000010100000001
11101011111011111010101110101111101
10001000001000100010100010101000001
10101010111111111010111111101011111
10101010000000100010000000101000001
10101011111011111011101111101011101
10101010000000100010000010001010001
10111110101111111011111110111111111
10001000100000100000000010000000001
10111111101010111011101010111110101
10100000001010001010001010000010101
10101110101110101110111010101111101
10101000100010101000001010101000001
10111010101111101011111010101011101
10001010100000101000001010101000101
10101111111010101110101110111010101
10101000000010100010101000001010101
10111110101011111010101110111011111
10001000101000001010101000001000001
10111110111110111111101010111010111
10000010001000001000001010001010001
11101011101011111011101011101111111
10001000101000100010001000100000001
10111110101010101011101010111111101
10100000101010101000101010000010001
11111111111111111111111111111111111
